
List of user-set options:

                                    Name   Value                used
                linear_scaling_on_demand = no                    yes
                           linear_solver = ma86                  yes
                   linear_system_scaling = mc19                  yes
                                max_iter = 500                   yes
                                 mu_init = 1e-06                 yes
                             output_file = ./tmp/ipopt_output_tmp.output  yes
                      print_user_options = yes                   yes
        required_infeasibility_reduction = 1                      no
                   warm_start_bound_push = 1e-20                 yes
                   warm_start_init_point = yes                   yes
              warm_start_mult_bound_push = 1e-20                 yes

******************************************************************************
This program contains Ipopt, a library for large-scale nonlinear optimization.
 Ipopt is released as open source code under the Eclipse Public License (EPL).
         For more information visit http://projects.coin-or.org/Ipopt
******************************************************************************

This is Ipopt version 3.12.10, running with linear solver ma86.

Number of nonzeros in equality constraint Jacobian...:   117110
Number of nonzeros in inequality constraint Jacobian.:      213
Number of nonzeros in Lagrangian Hessian.............:    47279

Total number of variables............................:    29961
                     variables with only lower bounds:    11312
                variables with lower and upper bounds:    15122
                     variables with only upper bounds:        0
Total number of equality constraints.................:    29863
Total number of inequality constraints...............:       25
        inequality constraints with only lower bounds:        4
   inequality constraints with lower and upper bounds:        0
        inequality constraints with only upper bounds:       21

iter    objective    inf_pr   inf_du lg(mu)  ||d||  lg(rg) alpha_du alpha_pr  ls
   0 -1.0953708e-01 1.51e-04 7.15e+00  -6.0 0.00e+00    -  0.00e+00 0.00e+00   0
   1 -1.0953708e-01 1.51e-04 7.18e+00  -6.0 8.17e+03  -4.0 3.08e-04 6.62e-10f  2
   2 -1.0953841e-01 2.34e+00 8.28e+00  -6.0 1.56e+02  -4.5 1.17e-02 1.01e-03f  1
   3 -1.1002130e-01 5.17e-01 9.00e+01  -6.0 3.39e+00  -5.0 6.50e-03 8.07e-01h  1
   4 -1.1036877e-01 2.76e-01 4.04e+01  -6.0 9.01e+00  -5.4 7.80e-01 5.52e-01h  1
   5 -1.1156992e-01 1.99e+00 2.46e+01  -6.0 5.69e+01  -5.9 2.53e-01 3.91e-01h  1
   6 -1.1136061e-01 1.52e+00 1.85e+01  -6.0 9.36e+00  -5.5 3.65e-01 2.50e-01h  1
   7 -1.1197453e-01 6.39e-01 1.24e+01  -6.0 1.01e+01  -6.0 1.63e-01 7.93e-01h  1
   8 -1.1204003e-01 4.25e-01 5.62e+00  -6.0 2.66e+00  -5.5 6.41e-01 3.48e-01h  1
   9 -1.1229427e-01 2.47e-01 3.17e+00  -6.0 1.04e+01  -6.0 4.20e-01 5.37e-01h  1
iter    objective    inf_pr   inf_du lg(mu)  ||d||  lg(rg) alpha_du alpha_pr  ls
  10 -1.1238514e-01 1.43e-01 7.25e+00  -6.0 3.08e+00  -5.6 1.00e+00 4.44e-01h  1
  11 -1.1266526e-01 2.31e-01 7.10e+00  -6.0 1.07e+01  -6.1 1.00e+00 7.47e-01f  1
  12 -1.1280056e-01 1.23e-01 2.82e+01  -6.0 4.03e+00  -5.6 1.00e+00 6.15e-01h  1
  13 -1.1286940e-01 1.19e-01 1.11e+02  -6.0 1.43e+01  -6.1 1.00e+00 1.08e-01h  1
  14 -1.1338803e-01 6.68e+00 7.90e+01  -6.0 9.27e+01  -6.6 4.61e-01 3.50e-01h  1
  15 -1.1341255e-01 5.77e+00 8.87e+01  -6.0 2.60e+01  -7.1 7.06e-01 1.45e-01h  1
  16 -1.1360151e-01 4.99e+00 9.70e+01  -6.0 8.40e+01  -7.5 7.94e-01 1.40e-01h  1
  17 -1.1384534e-01 4.43e+00 8.82e+01  -6.0 1.71e+02  -8.0 2.47e-01 1.16e-01h  1
  18 -1.1517231e-01 3.57e+00 3.96e+02  -6.0 8.29e+02  -8.5 5.13e-02 3.01e-01h  1
  19 -1.1562264e-01 2.75e+00 2.91e+02  -6.0 2.54e+02  -8.1 1.82e-01 2.35e-01h  1
iter    objective    inf_pr   inf_du lg(mu)  ||d||  lg(rg) alpha_du alpha_pr  ls
  20 -1.1585398e-01 2.71e+00 2.82e+02  -6.0 3.23e+03    -  1.00e-01 3.13e-02h  1
  21 -1.1642312e-01 5.79e+00 2.63e+02  -6.0 4.98e+03    -  9.49e-03 6.57e-02h  1
  22 -1.1646029e-01 5.63e+00 2.56e+02  -6.0 2.55e+02  -8.5 4.01e-01 2.80e-02h  1
  23 -1.1706589e-01 4.83e+00 1.76e+02  -6.0 4.04e+02  -9.0 4.97e-01 3.09e-01h  1
  24 -1.1725550e-01 5.84e+00 1.67e+02  -6.0 3.70e+03  -9.5 5.69e-02 5.27e-02h  1
  25 -1.1749806e-01 6.26e+00 1.56e+02  -6.0 2.28e+03 -10.0 1.14e-01 6.60e-02h  1
  26 -1.1778026e-01 7.17e+00 1.34e+02  -6.0 1.23e+03  -9.6 2.40e-01 1.42e-01h  1
  27 -1.1812677e-01 6.48e+00 9.48e+01  -6.0 4.77e+02  -9.1 2.14e-01 2.89e-01h  1
  28 -1.1813105e-01 6.44e+00 9.41e+01  -6.0 2.00e+02  -8.7 6.46e-03 6.86e-03h  1
  29 -1.1813406e-01 6.40e+00 9.36e+01  -6.0 1.20e+02  -8.3 6.06e-03 6.26e-03f  1
iter    objective    inf_pr   inf_du lg(mu)  ||d||  lg(rg) alpha_du alpha_pr  ls
  30 -1.1813680e-01 6.37e+00 9.32e+01  -6.0 2.26e+02  -8.8 3.40e-03 4.14e-03f  1
  31 -1.1813751e-01 6.36e+00 9.31e+01  -6.0 2.09e+02  -8.3 8.22e-04 1.21e-03h  1
  32 -1.1813763e-01 6.36e+00 9.30e+01  -6.0 3.00e+02  -8.8 5.84e-05 1.35e-04h  1
  33 -1.1813764e-01 6.36e+00 9.30e+01  -6.0 3.47e+03  -8.4 2.85e-06 4.42e-06f  2
  34 -1.1813761e-01 6.36e+00 9.30e+01  -6.0 2.41e+03  -6.1 2.77e-04 2.64e-06h  2
  35 -1.1836287e-01 8.11e-02 3.35e+01  -6.0 2.02e+01  -6.6 1.99e-01 1.00e+00h  1
  36 -1.1838410e-01 7.37e-02 3.35e+01  -6.0 7.78e+00  -6.2 7.12e-01 8.42e-02h  1
  37 -1.1843515e-01 4.51e-02 7.24e+01  -6.0 8.75e+00  -6.7 8.71e-01 3.10e-01h  1
  38 -1.1844508e-01 4.18e-02 6.71e+01  -6.0 3.22e+01  -6.2 3.05e-02 6.84e-02h  1
  39 -1.1847197e-01 2.81e-02 6.12e+02  -6.0 7.23e+00  -4.9 4.23e-02 2.02e-01f  1
iter    objective    inf_pr   inf_du lg(mu)  ||d||  lg(rg) alpha_du alpha_pr  ls
  40 -1.1848132e-01 1.41e-02 2.74e+02  -6.0 1.72e+00  -5.4 3.88e-01 5.04e-01h  1
  41 -1.1850269e-01 9.46e-03 2.04e+02  -6.0 3.67e+00  -5.9 1.61e-01 3.09e-01f  1
  42 -1.1850419e-01 9.42e-03 2.03e+02  -6.0 5.92e+01  -6.4 3.32e-04 3.88e-03h  1
  43 -1.1850413e-01 9.42e-03 2.03e+02  -6.0 3.74e+04  -6.8 5.14e-09 3.65e-07f  1
  44 -1.1848590e-01 9.52e-03 2.20e+02  -6.0 3.64e+04  -7.3 9.94e-04 2.39e-04f  3
  45 -1.1861700e-01 1.20e-01 1.96e+02  -6.0 1.04e+02  -7.8 1.27e-01 1.23e-01h  1
  46 -1.1880270e-01 2.88e-01 1.16e+02  -6.0 2.32e+01  -7.4 3.76e-01 5.59e-01h  1
  47 -1.1887450e-01 1.52e+00 3.35e+02  -6.0 6.70e+02  -7.8 1.97e-02 4.22e-02h  1
  48 -1.1904407e-01 1.20e+00 1.90e+03  -6.0 1.25e+02  -8.3 8.15e-01 2.42e-01h  1
  49 -1.1948649e-01 7.62e-01 1.59e+03  -6.0 2.90e+02  -8.8 4.71e-01 3.66e-01h  1
iter    objective    inf_pr   inf_du lg(mu)  ||d||  lg(rg) alpha_du alpha_pr  ls
  50 -1.1950377e-01 7.24e-01 5.08e+03  -6.0 9.34e+01  -6.6 2.82e-02 5.38e-02h  1
  51 -1.1951666e-01 6.34e-01 4.69e+03  -6.0 5.48e+00  -6.1 9.54e-02 1.24e-01h  1
  52 -1.1953467e-01 1.33e-01 4.47e+03  -6.0 5.62e+00  -6.6 1.67e-01 7.92e-01f  1
  53 -1.1953853e-01 1.20e-01 4.02e+03  -6.0 1.11e+01  -6.2 1.22e-01 1.02e-01f  1
  54 -1.1959068e-01 3.26e-03 4.97e-01  -6.0 3.35e+00  -6.7 9.94e-01 1.00e+00h  1
  55 -1.1973686e-01 2.55e-02 1.03e+01  -6.0 1.07e+01  -7.1 4.62e-01 6.31e-01h  1
  56 -1.1973385e-01 2.15e-02 1.60e+02  -6.0 5.07e+00  -5.8 9.06e-01 1.61e-01h  1
  57 -1.1977952e-01 9.76e-03 5.61e+06  -6.0 6.65e+00  -6.3 3.94e-05 1.00e+00f  1
  58 -1.1980073e-01 7.19e-04 1.69e+02  -6.0 3.65e+00  -6.8 5.80e-01 1.00e+00h  1
  59 -1.1983744e-01 1.14e-03 6.74e+02  -6.0 2.43e+01  -7.2 2.93e-01 2.90e-01h  1
iter    objective    inf_pr   inf_du lg(mu)  ||d||  lg(rg) alpha_du alpha_pr  ls
  60 -1.2002102e-01 2.53e-02 5.26e+02  -6.0 5.50e+01  -7.7 1.99e-01 6.30e-01f  1
  61 -1.2033116e-01 9.48e-02 4.33e+02  -6.0 1.19e+02  -8.2 3.47e-01 4.90e-01f  1
  62 -1.2053497e-01 9.52e-02 3.89e+06  -6.0 2.18e+02  -8.7 1.81e-05 1.79e-01h  1
  63 -1.2077545e-01 1.57e-01 3.45e+06  -6.0 5.46e+02  -9.1 3.36e-01 1.14e-01h  1
  64 -1.2109511e-01 1.84e-01 2.13e+06  -6.0 1.98e+02  -8.7 4.01e-01 3.82e-01h  1
  65 -1.2130670e-01 3.05e-01 1.79e+06  -6.0 5.29e+02  -9.2 6.42e-01 1.61e-01h  1
  66 -1.2180963e-01 6.55e-01 2.87e+05  -6.0 2.25e+02  -8.8 8.65e-01 8.40e-01h  1
  67 -1.2211506e-01 1.08e+00 2.10e+05  -6.0 6.33e+02  -9.2 4.74e-01 2.68e-01h  1
  68 -1.2234098e-01 1.46e+00 1.99e+05  -6.0 3.13e+03  -9.7 4.48e-02 5.01e-02h  1
  69 -1.2234483e-01 1.46e+00 1.99e+05  -6.0 7.61e+02  -9.3 3.57e-03 3.32e-03h  1
iter    objective    inf_pr   inf_du lg(mu)  ||d||  lg(rg) alpha_du alpha_pr  ls
  70 -1.2282994e-01 4.14e+00 1.78e+05  -6.0 3.44e+03  -9.8 8.34e-02 1.06e-01f  1
  71 -1.2284358e-01 2.54e+00 1.09e+05  -6.0 2.34e+01  -6.6 2.38e-01 3.85e-01h  1
  72 -1.2284492e-01 2.43e+00 1.04e+05  -6.0 8.05e+00  -7.1 1.00e+00 4.63e-02h  1
  73 -1.2281055e-01 1.26e-02 1.94e+01  -6.0 1.60e+01  -7.6 3.76e-01 1.00e+00h  1
  74 -1.2290502e-01 4.67e-02 1.42e+00  -6.0 4.63e+01  -8.1 1.00e+00 1.00e+00h  1
  75 -1.2312170e-01 3.91e-01 1.41e+00  -6.0 1.34e+02  -8.6 1.00e+00 1.00e+00h  1
  76 -1.2357036e-01 2.00e+00 7.49e+00  -6.0 4.16e+02  -9.0 6.59e-01 7.04e-01h  1
  77 -1.2529871e-01 2.99e+01 1.17e+02  -6.0 1.51e+03  -9.5 4.88e-02 7.60e-01h  1
  78 -1.2529083e-01 2.93e+01 1.14e+02  -6.0 1.01e+03  -7.3 8.45e-02 2.10e-02h  1
  79 -1.2529626e-01 2.54e+01 9.91e+01  -6.0 1.18e+02  -5.9 2.11e-03 1.31e-01h  1
iter    objective    inf_pr   inf_du lg(mu)  ||d||  lg(rg) alpha_du alpha_pr  ls
  80 -1.2546301e-01 4.26e+00 1.98e+01  -6.0 4.72e+00  -6.4 2.85e-01 8.33e-01h  1
  81 -1.2548537e-01 1.98e+00 8.05e+00  -6.0 1.73e+00  -6.0 6.23e-01 5.35e-01h  1
  82 -1.2549796e-01 1.35e+00 5.02e+00  -6.0 1.71e+00  -6.5 9.57e-01 3.19e-01h  1
  83 -1.2561624e-01 4.86e+01 2.15e+01  -6.0 1.41e+04    -  1.72e-01 1.33e-01h  1
  84 -1.2559334e-01 4.76e+01 2.62e+01  -6.0 6.70e+03    -  3.33e-02 3.47e-02h  1
  85 -1.2561687e-01 3.10e-02 1.69e+04  -6.0 5.33e+00  -6.9 3.98e-02 1.00e+00h  1
  86 -1.2563750e-01 1.53e+00 1.40e+04  -6.0 2.02e+03    -  1.00e+00 1.70e-01h  1
  87 -1.2561580e-01 4.04e+00 1.28e+04  -6.0 5.36e+03    -  1.09e-01 8.56e-02h  1
  88 -1.2562296e-01 3.56e+00 1.13e+04  -6.0 7.24e+01  -7.4 1.06e-03 1.19e-01h  1
  89 -1.2562685e-01 1.09e-02 3.19e+00  -6.0 1.35e+01  -7.9 1.00e+00 1.00e+00f  1
iter    objective    inf_pr   inf_du lg(mu)  ||d||  lg(rg) alpha_du alpha_pr  ls
  90 -1.2569562e-01 8.19e-02 8.19e-01  -6.0 4.49e+01  -8.4 1.00e+00 1.00e+00h  1
  91 -1.2578709e-01 1.70e-01 1.42e+00  -6.0 1.14e+02  -8.9 1.00e+00 1.00e+00h  1
  92 -1.2584262e-01 6.14e-01 5.90e+00  -6.0 3.88e+02  -9.3 9.34e-01 3.77e-01h  1
  93 -1.2582572e-01 2.92e-01 1.50e+01  -6.0 7.41e+01  -8.9 1.94e-01 5.35e-01h  1
  94 -1.2583178e-01 2.92e-01 1.49e+01  -6.0 1.79e+03  -7.6 2.48e-03 2.99e-03h  1
  95 -1.2586079e-01 6.26e-03 1.40e+00  -6.0 2.32e+01  -8.1 5.62e-01 1.00e+00h  1
  96 -1.2588804e-01 8.71e+00 6.58e+00  -6.0 3.13e+03    -  2.70e-01 2.68e-01h  1
  97 -1.2579065e-01 8.36e+00 1.74e+01  -6.0 7.37e+03  -8.5 1.66e-02 4.04e-02h  2
  98 -1.2582373e-01 8.30e+00 1.89e+01  -6.0 1.29e+04  -9.0 2.55e-02 7.66e-03h  2
  99 -1.2585556e-01 8.32e+00 2.82e+01  -6.0 1.94e+03    -  8.68e-01 1.87e-01h  1
iter    objective    inf_pr   inf_du lg(mu)  ||d||  lg(rg) alpha_du alpha_pr  ls
 100 -1.2587689e-01 8.09e+00 2.69e+01  -6.0 1.52e+03    -  1.90e-02 3.18e-02h  1
 101 -1.2584638e-01 4.41e-01 3.73e+01  -6.0 1.91e+02  -9.5 3.48e-02 1.00e+00h  1
 102 -1.2586372e-01 3.02e-02 6.12e-01  -6.0 3.81e+01  -9.1 1.00e+00 1.00e+00h  1
 103 -1.2591939e-01 4.37e-01 3.21e+00  -6.0 3.05e+02  -9.5 8.47e-01 6.36e-01h  1
 104 -1.2588791e-01 1.17e+00 1.07e+01  -6.0 5.72e+02 -10.0 1.00e+00 5.47e-01h  1
 105 -1.2590212e-01 8.83e-01 7.69e+00  -6.0 3.17e+02    -  2.60e-01 4.38e-01h  2
 106 -1.2589546e-01 9.05e-01 1.49e+01  -6.0 1.44e+03    -  7.27e-01 5.33e-02h  2
 107 -1.2588411e-01 1.12e-01 5.72e-01  -6.0 6.19e+01    -  1.00e+00 1.00e+00h  1
 108 -1.2587645e-01 3.37e-02 1.67e-01  -6.0 2.12e+01    -  1.00e+00 1.00e+00h  1
 109 -1.2587794e-01 6.51e-04 7.00e-03  -6.0 2.95e+00    -  1.00e+00 1.00e+00h  1
iter    objective    inf_pr   inf_du lg(mu)  ||d||  lg(rg) alpha_du alpha_pr  ls
 110 -1.2587795e-01 1.26e-07 6.31e-07  -6.0 3.97e-02    -  1.00e+00 1.00e+00h  1
 111 -1.2625404e-01 1.50e+00 5.47e+01  -9.0 7.07e+02    -  1.94e-01 3.04e-01f  1
 112 -1.2638350e-01 1.13e+00 4.71e+01  -9.0 1.44e+03    -  1.54e-01 1.27e-01h  1
 113 -1.2648586e-01 1.37e+00 5.50e+01  -9.0 1.76e+03 -10.5 3.83e-02 1.24e-01h  1
 114 -1.2652274e-01 1.34e+00 4.91e+01  -9.0 9.87e+03 -11.0 4.53e-02 1.15e-02h  1
 115 -1.2656509e-01 1.44e+00 5.36e+01  -9.0 2.07e+03    -  4.59e-04 5.84e-02h  1
 116 -1.2656979e-01 1.43e+00 3.65e+01  -9.0 2.82e+03    -  1.66e-01 4.84e-03h  1
 117 -1.2685421e-01 8.11e+00 8.32e+01  -9.0 1.57e+03    -  8.91e-04 4.96e-01f  1
 118 -1.2687105e-01 8.02e+00 4.19e+01  -9.0 3.80e+03    -  3.37e-01 2.11e-02h  1
 119 -1.2697862e-01 1.05e+01 3.52e+01  -9.0 3.48e+03    -  1.77e-01 1.56e-01h  1
iter    objective    inf_pr   inf_du lg(mu)  ||d||  lg(rg) alpha_du alpha_pr  ls
 120 -1.2698779e-01 1.03e+01 4.98e+01  -9.0 2.58e+03    -  2.45e-03 1.89e-02h  1
 121 -1.2702929e-01 1.05e+01 5.35e+01  -9.0 4.13e+03    -  8.09e-03 6.08e-02h  1
 122 -1.2711815e-01 1.30e+01 5.16e+01  -9.0 4.64e+03    -  1.82e-01 1.16e-01h  1
 123 -1.2738473e-01 5.04e+01 5.28e+02  -9.0 4.28e+03    -  4.03e-02 4.21e-01h  1
 124 -1.2751530e-01 6.50e+01 5.34e+02  -9.0 6.62e+03    -  6.32e-02 1.98e-01h  1
 125 -1.2769037e-01 4.93e+01 3.57e+02  -9.0 2.03e+03    -  2.05e-04 5.87e-01h  1
 126 -1.2775540e-01 4.09e+01 2.35e+02  -9.0 1.92e+03    -  4.34e-01 2.46e-01h  1
 127 -1.2778906e-01 3.69e+01 4.33e+02  -9.0 2.03e+03    -  5.97e-01 1.23e-01h  1
 128 -1.2779482e-01 3.61e+01 4.14e+02  -9.0 1.87e+03    -  7.77e-03 2.17e-02h  1
 129 -1.2783405e-01 2.74e+01 1.88e+02  -9.0 1.89e+02    -  5.84e-02 2.40e-01h  1
iter    objective    inf_pr   inf_du lg(mu)  ||d||  lg(rg) alpha_du alpha_pr  ls
 130 -1.2784643e-01 2.54e+01 3.70e+02  -9.0 1.85e+02    -  2.37e-01 7.24e-02h  1
 131 -1.2800483e-01 2.15e+00 5.27e+02  -9.0 1.84e+02    -  4.11e-01 9.19e-01h  1
In iteration 131, 1 Slack too small, adjusting variable bound
 132 -1.2805689e-01 1.71e+00 5.39e+02  -9.0 3.27e+02    -  2.12e-01 2.56e-01h  1
 133 -1.2810456e-01 1.47e+00 2.01e+03  -9.0 4.26e+02    -  5.42e-01 2.20e-01h  1
 134 -1.2819576e-01 1.71e+00 5.07e+03  -9.0 5.83e+02    -  7.47e-01 3.82e-01h  1
 135 -1.2826204e-01 1.62e+00 2.50e+04  -9.0 1.27e+03    -  5.25e-02 2.05e-01h  1
 136 -1.2826156e-01 1.62e+00 6.62e+05  -9.0 5.58e+03    -  2.46e-05 2.51e-03h  3
 137 -1.2825209e-01 1.46e+00 5.93e+05  -9.0 5.62e+02    -  1.03e-02 1.04e-01h  1
 138 -1.2826914e-01 1.13e+00 4.34e+05  -9.0 3.29e+02    -  1.32e-02 2.68e-01h  1
 139 -1.2827785e-01 9.15e-01 4.08e+07  -9.0 5.02e+02    -  3.21e-05 1.96e-01h  1
iter    objective    inf_pr   inf_du lg(mu)  ||d||  lg(rg) alpha_du alpha_pr  ls
 140 -1.2825700e-01 9.65e-01 9.34e+06  -9.0 2.66e+02    -  2.93e-05 7.71e-01h  1
 141 -1.2822512e-01 1.13e-01 5.06e+04  -9.0 7.66e+01    -  7.79e-01 9.95e-01h  1
 142 -1.2823264e-01 3.03e-02 1.35e+04  -9.0 2.59e+01  -7.8 4.44e-02 7.33e-01f  1
 143 -1.2823592e-01 4.18e-02 8.98e-01  -9.0 3.87e+01    -  2.11e-01 1.00e+00f  1
 144 -1.2823680e-01 3.54e-02 7.67e-01  -9.0 1.43e+01  -7.4 2.30e-01 1.52e-01h  1
 145 -1.2823669e-01 3.34e-02 7.24e-01  -9.0 3.10e+00  -7.0 5.85e-02 5.74e-02h  1
 146 -1.2823807e-01 2.65e-02 5.67e-01  -9.0 1.52e+01  -7.5 4.77e-02 2.07e-01f  1
 147 -1.2823832e-01 5.43e-04 1.39e-04  -9.0 3.65e+00  -7.0 1.00e+00 1.00e+00h  1
 148 -1.2824806e-01 6.96e-03 3.64e-03  -9.0 1.33e+01  -7.5 4.86e-01 1.00e+00h  1
 149 -1.2825785e-01 1.05e-02 6.56e-03  -9.0 2.48e+02  -8.0 3.06e-02 3.88e-02h  1
iter    objective    inf_pr   inf_du lg(mu)  ||d||  lg(rg) alpha_du alpha_pr  ls
 150 -1.2825789e-01 1.05e-02 5.03e+00  -9.0 3.41e+03    -  3.51e-01 1.55e-04h  1
 151 -1.2826452e-01 9.10e-03 1.29e+01  -9.0 1.07e+02    -  1.00e+00 1.99e-01f  1
 152 -1.2829707e-01 1.62e-01 8.20e-03  -9.0 9.45e+01    -  1.00e+00 1.00e+00h  1
 153 -1.2831003e-01 1.18e-01 3.18e+01  -9.0 5.03e+01    -  6.81e-01 2.96e-01h  1
 154 -1.2835712e-01 4.75e-02 4.58e-04  -9.0 5.20e+01    -  1.00e+00 1.00e+00h  1
 155 -1.2837875e-01 4.56e-02 4.29e+01  -9.0 9.90e+01    -  4.33e-01 3.31e-01h  1
 156 -1.2842075e-01 9.45e-02 2.50e+02  -9.0 1.15e+02    -  1.00e+00 6.08e-01h  1
 157 -1.2847610e-01 6.11e-02 9.99e+01  -9.0 7.71e+01    -  5.13e-01 6.90e-01h  1
 158 -1.2849754e-01 5.52e-02 5.03e+02  -9.0 1.09e+02    -  4.91e-01 2.47e-01h  1
 159 -1.2858024e-01 2.71e-01 1.33e+03  -9.0 1.22e+02    -  6.77e-03 1.00e+00h  1
iter    objective    inf_pr   inf_du lg(mu)  ||d||  lg(rg) alpha_du alpha_pr  ls
 160 -1.2859127e-01 2.58e-01 1.84e+03  -9.0 2.79e+02    -  4.08e-03 5.63e-02h  1
 161 -1.2859089e-01 2.58e-01 1.29e+04  -9.0 1.56e+04    -  2.38e-05 1.55e-04h  7
 162 -1.2861689e-01 2.22e-01 9.22e+03  -9.0 1.87e+02    -  3.82e-01 2.91e-01h  1
 163 -1.2867120e-01 5.14e-01 5.93e+02  -9.0 1.81e+02    -  2.72e-01 1.00e+00h  1
 164 -1.2867750e-01 4.48e-01 5.13e+02  -9.0 1.06e+02    -  7.16e-01 1.36e-01h  1
 165 -1.2872524e-01 1.71e-01 4.57e-03  -9.0 1.04e+02    -  1.00e+00 1.00e+00h  1
 166 -1.2875193e-01 1.13e-01 2.44e+00  -9.0 5.99e+01    -  4.85e-01 3.89e-01h  1
 167 -1.2882588e-01 3.22e-02 2.51e-03  -9.0 4.21e+01    -  1.00e+00 1.00e+00h  1
 168 -1.2886048e-01 2.52e-02 2.76e+01  -9.0 4.44e+01    -  5.94e-01 3.76e-01h  1
 169 -1.2895344e-01 3.54e-02 1.44e-03  -9.0 4.42e+01    -  1.00e+00 1.00e+00h  1
iter    objective    inf_pr   inf_du lg(mu)  ||d||  lg(rg) alpha_du alpha_pr  ls
 170 -1.2899759e-01 2.78e-01 4.79e+01  -9.0 2.71e+02    -  5.82e-01 4.78e-01h  1
 171 -1.2908537e-01 2.93e+00 1.95e+01  -9.0 4.28e+02    -  9.69e-01 1.00e+00h  1
 172 -1.2912713e-01 1.98e+01 2.90e+02  -9.0 1.72e+03    -  4.00e-01 6.22e-01h  1
 173 -1.2917395e-01 5.48e+01 1.77e+02  -9.0 1.93e+03    -  7.82e-01 9.04e-01h  1
 174 -1.2917220e-01 5.33e+01 1.53e+02  -9.0 7.53e+02    -  1.80e-01 2.71e-02h  1
 175 -1.2917269e-01 5.33e+01 5.20e+04  -9.0 5.10e+04    -  7.32e-05 1.33e-03h  1
 176 -1.2916743e-01 4.48e+01 4.17e+04  -9.0 1.90e+03    -  4.91e-02 1.99e-01h  1
 177 -1.2916743e-01 4.48e+01 4.17e+04  -9.0 3.21e+03    -  1.30e-02 4.13e-04h  1
 178 -1.2916354e-01 3.54e+01 2.36e+04  -9.0 1.97e+03    -  2.68e-02 4.34e-01h  1
 179 -1.2916456e-01 3.26e+01 2.16e+04  -9.0 1.68e+03    -  5.79e-04 8.48e-02h  1
iter    objective    inf_pr   inf_du lg(mu)  ||d||  lg(rg) alpha_du alpha_pr  ls
 180 -1.2916560e-01 3.16e+01 2.09e+04  -9.0 3.32e+03    -  4.02e-01 3.48e-02h  1
 181 -1.2916214e-01 3.14e+01 2.07e+04  -9.0 1.63e+03  -7.6 3.82e-04 8.60e-03h  1
 182 -1.2916054e-01 3.12e+01 2.05e+04  -9.0 1.08e+04    -  1.11e-03 1.04e-02h  6
 183 -1.2916055e-01 3.12e+01 2.04e+04  -9.0 2.21e+02    -  6.82e-02 5.91e-04h  1
 184 -1.2917753e-01 2.20e-01 5.48e+00  -9.0 7.52e+01    -  1.13e-01 1.00e+00h  1
 185 -1.2918524e-01 2.15e-01 6.43e+00  -9.0 6.45e+01  -8.0 3.77e-03 2.36e-02h  1
 186 -1.2922906e-01 1.90e-01 1.69e+00  -9.0 7.93e+01  -8.5 1.49e-01 1.16e-01h  1
 187 -1.2932170e-01 1.43e-01 3.32e+01  -9.0 7.89e+01  -9.0 2.87e-01 2.74e-01f  1
 188 -1.2942692e-01 1.06e-01 3.14e+00  -9.0 6.47e+01  -9.5 2.83e-01 3.21e-01h  1
 189 -1.2953441e-01 5.51e-01 2.71e+01  -9.0 4.11e+02  -9.9 9.87e-01 3.77e-01h  1
iter    objective    inf_pr   inf_du lg(mu)  ||d||  lg(rg) alpha_du alpha_pr  ls
 190 -1.2954587e-01 6.40e-01 4.42e+01  -9.0 1.81e+03 -10.4 1.00e+00 4.10e-02h  1
 191 -1.2978232e-01 4.99e+01 6.58e+00  -9.0 1.80e+03 -10.9 1.00e+00 1.00e+00h  1
 192 -1.2980056e-01 5.44e+01 6.45e+01  -9.0 2.76e+04 -11.4 9.90e-02 2.09e-02h  1
 193 -1.2980122e-01 3.43e+01 5.78e+01  -9.0 1.15e+03    -  4.14e-01 4.70e-01h  1
 194 -1.2982663e-01 3.48e+01 3.07e+02  -9.0 3.68e+03    -  4.02e-01 1.53e-01h  1
 195 -1.2989076e-01 4.49e+01 7.52e+02  -9.0 1.67e+03    -  1.60e-01 8.78e-01h  1
 196 -1.3007014e-01 3.31e+01 1.09e+07  -9.0 1.26e+03    -  8.78e-05 1.00e+00h  1
 197 -1.3022173e-01 4.00e+01 1.04e+07  -9.0 1.30e+04 -10.1 1.01e-01 4.86e-02h  1
 198 -1.3048747e-01 2.26e+01 4.81e+06  -9.0 7.58e+02    -  1.66e-01 5.36e-01h  1
 199 -1.3035671e-01 2.09e+01 4.27e+06  -9.0 1.70e+03  -8.7 9.84e-02 1.11e-01h  1
iter    objective    inf_pr   inf_du lg(mu)  ||d||  lg(rg) alpha_du alpha_pr  ls
 200 -1.3040677e-01 2.06e+01 4.17e+06  -9.0 4.45e+03  -9.2 3.46e-07 2.51e-02h  1
 201 -1.3041130e-01 2.05e+01 4.14e+06  -9.0 7.50e+02  -8.8 7.16e-01 7.21e-03h  1
 202 -1.3041178e-01 2.05e+01 4.13e+06  -9.0 1.52e+03  -9.3 2.91e-02 5.93e-04h  1
 203 -1.3051249e-01 1.00e+01 2.02e+06  -9.0 7.14e+01    -  4.26e-01 5.11e-01h  1
 204 -1.3064152e-01 4.95e+00 9.63e+05  -9.0 1.60e+02    -  1.61e-01 5.24e-01h  1
 205 -1.3071090e-01 3.29e+00 6.25e+05  -9.0 1.61e+02    -  3.74e-01 3.51e-01h  1
 206 -1.3091552e-01 5.23e-01 4.77e+03  -9.0 1.49e+02    -  3.59e-01 1.00e+00h  1
Scaling factors are invalid - setting them all to 1.
 207 -1.3095528e-01 4.73e-01 1.67e+03  -9.0 1.73e+02    -  2.40e-01 1.13e-01h  1
 208 -1.3096722e-01 4.71e-01 3.50e+06  -9.0 1.28e+04    -  4.51e-05 8.45e-03h  1
 209 -1.3124933e-01 5.58e-01 1.37e+06  -9.0 1.95e+02    -  6.32e-06 6.08e-01h  1
iter    objective    inf_pr   inf_du lg(mu)  ||d||  lg(rg) alpha_du alpha_pr  ls
 210 -1.3104464e-01 3.45e-02 6.72e+01  -9.0 2.00e+01    -  9.62e-04 1.00e+00h  1
 211 -1.3109440e-01 8.45e-03 9.03e-03  -9.0 1.92e+01    -  1.00e+00 1.00e+00h  1
 212 -1.3119033e-01 7.50e-03 8.35e-02  -9.0 2.34e+01    -  2.96e-01 3.34e-01h  1
 213 -1.3123853e-01 1.91e-01 1.26e-01  -9.0 9.12e+01    -  1.00e+00 1.00e+00h  1
Scaling factors are invalid - setting them all to 1.
 214 -1.3123793e-01 1.80e-01 5.32e+00  -9.0 1.94e+02    -  5.25e-01 1.25e-01h  4
Scaling factors are invalid - setting them all to 1.
 215 -1.3123702e-01 1.72e-01 3.35e+00  -9.0 1.97e+02    -  2.01e-02 1.25e-01h  4
Scaling factors are invalid - setting them all to 1.
 216 -1.3122196e-01 1.51e-01 3.96e-02  -9.0 8.18e+01    -  1.00e+00 1.00e+00h  1
Scaling factors are invalid - setting them all to 1.
 217 -1.3122133e-01 8.96e-05 1.36e-02  -9.0 1.84e+00    -  9.36e-01 1.00e+00h  1
Scaling factors are invalid - setting them all to 1.
 218 -1.3122131e-01 5.53e-08 7.18e-09  -9.0 4.95e-02    -  1.00e+00 1.00e+00h  1
Scaling factors are invalid - setting them all to 1.
 219 -1.3122131e-01 3.05e-10 7.76e-11  -9.0 1.39e-06    -  1.00e+00 1.00e+00h  1

Number of Iterations....: 219

                                   (scaled)                 (unscaled)
Objective...............:  -1.3122131450071597e-01   -1.3122131450071597e-01
Dual infeasibility......:   7.7551742805326285e-11    7.7551742805326285e-11
Constraint violation....:   3.0548423773230082e-10    3.0548423773230082e-10
Complementarity.........:   1.0000000029060667e-09    1.0000000029060667e-09
Overall NLP error.......:   1.0000000029060667e-09    1.0000000029060667e-09


Number of objective function evaluations             = 260
Number of objective gradient evaluations             = 220
Number of equality constraint evaluations            = 260
Number of inequality constraint evaluations          = 260
Number of equality constraint Jacobian evaluations   = 220
Number of inequality constraint Jacobian evaluations = 220
Number of Lagrangian Hessian evaluations             = 219
Total CPU secs in IPOPT (w/o function evaluations)   =    183.441
Total CPU secs in NLP function evaluations           =      3.384

EXIT: Optimal Solution Found.
